inputs/input17.dzn
n = 35;
l = 125;
s = 118;
r = 118;
f = 55;
forbidden = [| 25, 22
	| 16, 11
	| 14, 22
	| 30, 28
	| 34, 4
	| 12, 20
	| 34, 20
	| 31, 24
	| 31, 32
	| 14, 1
	| 11, 21
	| 12, 30
	| 15, 6
	| 31, 15
	| 7, 14
	| 16, 2
	| 1, 12
	| 13, 19
	| 24, 33
	| 25, 4
	| 21, 17
	| 3, 24
	| 28, 26
	| 25, 20
	| 7, 35
	| 11, 14
	| 18, 18
	| 34, 35
	| 32, 17
	| 7, 34
	| 33, 18
	| 24, 4
	| 18, 9
	| 10, 35
	| 27, 6
	| 33, 12
	| 21, 20
	| 13, 25
	| 19, 22
	| 35, 29
	| 15, 31
	| 33, 4
	| 22, 23
	| 18, 11
	| 18, 33
	| 1, 28
	| 13, 4
	| 10, 3
	| 32, 4
	| 30, 18
	| 31, 29
	| 2, 27
	| 1, 35
	| 18, 21
	| 9, 31
	|];